rcpsp/heur_output_bi_constraints/Log=5/heurj90.txt
encoding rcpsp/j90.sm/j906_10.sm nv: 1741428 nc: 3642465 enctime: 33.67
encoding rcpsp/j90.sm/j906_10.sm nv: 307684 nc: 640281 enctime: 3.99
c File: j906_10.smnaivebi5.wcnf
c optimal
c final solution cost: 94
c CPU time: 7.299508
s OPTIMUM FOUND

c File: j906_10.smbi5.wcnf
c optimal
c final solution cost: 94
c CPU time: 0.673196
s OPTIMUM FOUND


rcpsp/heur_output_bi_constraints/Log=5/heurj90.txt
encoding rcpsp/j90.sm/j906_1.sm nv: 1408808 nc: 2909763 enctime: 25.26
encoding rcpsp/j90.sm/j906_1.sm nv: 276840 nc: 569283 enctime: 3.54
c File: j906_1.smnaivebi5.wcnf
c optimal
c final solution cost: 76
c CPU time: 5.109850
s OPTIMUM FOUND

c File: j906_1.smbi5.wcnf
c optimal
c final solution cost: 76
c CPU time: 0.689644
s OPTIMUM FOUND


rcpsp/heur_output_bi_constraints/Log=5/heurj90.txt
encoding rcpsp/j90.sm/j906_2.sm nv: 1550172 nc: 3215974 enctime: 28.06
encoding rcpsp/j90.sm/j906_2.sm nv: 273006 nc: 563555 enctime: 3.43
c File: j906_2.smnaivebi5.wcnf
c optimal
c final solution cost: 65
c CPU time: 8.726178
s OPTIMUM FOUND

c File: j906_2.smbi5.wcnf
c optimal
c final solution cost: 65
c CPU time: 1.870052
s OPTIMUM FOUND


rcpsp/heur_output_bi_constraints/Log=5/heurj90.txt
encoding rcpsp/j90.sm/j906_3.sm nv: 1438976 nc: 3008701 enctime: 27.77
encoding rcpsp/j90.sm/j906_3.sm nv: 250624 nc: 521011 enctime: 3.27
c File: j906_3.smnaivebi5.wcnf
c timeout
c final solution cost: 159
c CPU time: 63.978328
s UNKNOWN

c File: j906_3.smbi5.wcnf
c optimal
c final solution cost: 69
c CPU time: 5.920109
s OPTIMUM FOUND


rcpsp/heur_output_bi_constraints/Log=5/heurj90.txt
encoding rcpsp/j90.sm/j906_4.sm nv: 1674092 nc: 3448106 enctime: 29.46
encoding rcpsp/j90.sm/j906_4.sm nv: 281360 nc: 576710 enctime: 3.64
c File: j906_4.smnaivebi5.wcnf
c optimal
c final solution cost: 75
c CPU time: 5.837811
s OPTIMUM FOUND

c File: j906_4.smbi5.wcnf
c optimal
c final solution cost: 75
c CPU time: 0.701865
s OPTIMUM FOUND


rcpsp/heur_output_bi_constraints/Log=5/heurj90.txt
encoding rcpsp/j90.sm/j906_5.sm nv: 1545403 nc: 3209476 enctime: 28.35
encoding rcpsp/j90.sm/j906_5.sm nv: 250857 nc: 517974 enctime: 2.51
c File: j906_5.smnaivebi5.wcnf
c timeout
c final solution cost: 57
c CPU time: 64.030994
s UNKNOWN

c File: j906_5.smbi5.wcnf
c timeout
c final solution cost: 57
c CPU time: 60.381951
s UNKNOWN


rcpsp/heur_output_bi_constraints/Log=5/heurj90.txt
encoding rcpsp/j90.sm/j906_6.sm nv: 1556856 nc: 3239592 enctime: 29.12
encoding rcpsp/j90.sm/j906_6.sm nv: 324345 nc: 672027 enctime: 4.19
c File: j906_6.smnaivebi5.wcnf
c optimal
c final solution cost: 90
c CPU time: 5.898396
s OPTIMUM FOUND

c File: j906_6.smbi5.wcnf
c optimal
c final solution cost: 90
c CPU time: 0.942926
s OPTIMUM FOUND


rcpsp/heur_output_bi_constraints/Log=5/heurj90.txt
encoding rcpsp/j90.sm/j906_7.sm nv: 1787916 nc: 3667139 enctime: 30.00
encoding rcpsp/j90.sm/j906_7.sm nv: 284700 nc: 581111 enctime: 3.65
c File: j906_7.smnaivebi5.wcnf
c optimal
c final solution cost: 69
c CPU time: 6.516255
s OPTIMUM FOUND

c File: j906_7.smbi5.wcnf
c optimal
c final solution cost: 69
c CPU time: 0.744476
s OPTIMUM FOUND


rcpsp/heur_output_bi_constraints/Log=5/heurj90.txt
encoding rcpsp/j90.sm/j906_8.sm nv: 1690040 nc: 3502266 enctime: 31.09
encoding rcpsp/j90.sm/j906_8.sm nv: 250500 nc: 515867 enctime: 2.48
c File: j906_8.smnaivebi5.wcnf
c timeout
c final solution cost: 62
c CPU time: 64.210391
s UNKNOWN

c File: j906_8.smbi5.wcnf
c timeout
c final solution cost: 62
c CPU time: 60.377108
s UNKNOWN


rcpsp/heur_output_bi_constraints/Log=5/heurj90.txt
encoding rcpsp/j90.sm/j906_9.sm nv: 1699360 nc: 3510318 enctime: 29.79
encoding rcpsp/j90.sm/j906_9.sm nv: 244240 nc: 501519 enctime: 3.19
c File: j906_9.smnaivebi5.wcnf
c optimal
c final solution cost: 64
c CPU time: 6.641977
s OPTIMUM FOUND

c File: j906_9.smbi5.wcnf
c optimal
c final solution cost: 64
c CPU time: 0.619216
s OPTIMUM FOUND


rcpsp/heur_output_bi_constraints/Log=5/heurj90.txt
encoding rcpsp/j90.sm/j907_10.sm nv: 2051472 nc: 4239544 enctime: 36.64
encoding rcpsp/j90.sm/j907_10.sm nv: 375408 nc: 772496 enctime: 4.75
c File: j907_10.smnaivebi5.wcnf
c optimal
c final solution cost: 98
c CPU time: 8.190827
s OPTIMUM FOUND

c File: j907_10.smbi5.wcnf
c optimal
c final solution cost: 98
c CPU time: 0.714962
s OPTIMUM FOUND


rcpsp/heur_output_bi_constraints/Log=5/heurj90.txt
encoding rcpsp/j90.sm/j907_1.sm nv: 2185475 nc: 4446076 enctime: 35.94
encoding rcpsp/j90.sm/j907_1.sm nv: 409489 nc: 830414 enctime: 5.05
c File: j907_1.smnaivebi5.wcnf
c optimal
c final solution cost: 80
c CPU time: 5.966886
s OPTIMUM FOUND

c File: j907_1.smbi5.wcnf
c optimal
c final solution cost: 80
c CPU time: 0.782113
s OPTIMUM FOUND


rcpsp/heur_output_bi_constraints/Log=5/heurj90.txt
encoding rcpsp/j90.sm/j907_2.sm nv: 2013235 nc: 4108921 enctime: 33.98
encoding rcpsp/j90.sm/j907_2.sm nv: 265664 nc: 539262 enctime: 3.51
c File: j907_2.smnaivebi5.wcnf
c optimal
c final solution cost: 63
c CPU time: 6.894827
s OPTIMUM FOUND

c File: j907_2.smbi5.wcnf
c optimal
c final solution cost: 63
c CPU time: 0.553955
s OPTIMUM FOUND


rcpsp/heur_output_bi_constraints/Log=5/heurj90.txt
encoding rcpsp/j90.sm/j907_3.sm nv: 2005481 nc: 4114283 enctime: 34.53
encoding rcpsp/j90.sm/j907_3.sm nv: 305444 nc: 623687 enctime: 3.90
c File: j907_3.smnaivebi5.wcnf
c optimal
c final solution cost: 65
c CPU time: 5.981404
s OPTIMUM FOUND

c File: j907_3.smbi5.wcnf
c optimal
c final solution cost: 65
c CPU time: 0.844292
s OPTIMUM FOUND


rcpsp/heur_output_bi_constraints/Log=5/heurj90.txt
encoding rcpsp/j90.sm/j907_4.sm nv: 1639891 nc: 3375797 enctime: 28.80
encoding rcpsp/j90.sm/j907_4.sm nv: 228822 nc: 468189 enctime: 2.26
c File: j907_4.smnaivebi5.wcnf
c optimal
c final solution cost: 57
c CPU time: 8.356904
s OPTIMUM FOUND

c File: j907_4.smbi5.wcnf
c optimal
c final solution cost: 57
c CPU time: 0.590566
s OPTIMUM FOUND


rcpsp/heur_output_bi_constraints/Log=5/heurj90.txt
encoding rcpsp/j90.sm/j907_5.sm nv: 1727928 nc: 3540782 enctime: 29.97
encoding rcpsp/j90.sm/j907_5.sm nv: 289224 nc: 590042 enctime: 3.71
c File: j907_5.smnaivebi5.wcnf
c optimal
c final solution cost: 68
c CPU time: 6.474807
s OPTIMUM FOUND

c File: j907_5.smbi5.wcnf
c optimal
c final solution cost: 68
c CPU time: 0.765760
s OPTIMUM FOUND


rcpsp/heur_output_bi_constraints/Log=5/heurj90.txt
encoding rcpsp/j90.sm/j907_6.sm nv: 1665962 nc: 3429580 enctime: 29.13
encoding rcpsp/j90.sm/j907_6.sm nv: 264328 nc: 541279 enctime: 3.38
c File: j907_6.smnaivebi5.wcnf
c optimal
c final solution cost: 63
c CPU time: 5.508592
s OPTIMUM FOUND

c File: j907_6.smbi5.wcnf
c optimal
c final solution cost: 63
c CPU time: 0.615190
s OPTIMUM FOUND


rcpsp/heur_output_bi_constraints/Log=5/heurj90.txt
encoding rcpsp/j90.sm/j907_7.sm nv: 2047536 nc: 4173862 enctime: 33.62
encoding rcpsp/j90.sm/j907_7.sm nv: 394758 nc: 802012 enctime: 4.82
c File: j907_7.smnaivebi5.wcnf
c optimal
c final solution cost: 90
c CPU time: 5.590141
s OPTIMUM FOUND

c File: j907_7.smbi5.wcnf
c optimal
c final solution cost: 90
c CPU time: 0.714745
s OPTIMUM FOUND


rcpsp/heur_output_bi_constraints/Log=5/heurj90.txt
encoding rcpsp/j90.sm/j907_8.sm nv: 2192055 nc: 4447293 enctime: 35.05
encoding rcpsp/j90.sm/j907_8.sm nv: 290055 nc: 585693 enctime: 3.73
c File: j907_8.smnaivebi5.wcnf
c optimal
c final solution cost: 58
c CPU time: 6.047265
s OPTIMUM FOUND

c File: j907_8.smbi5.wcnf
c optimal
c final solution cost: 58
c CPU time: 0.638513
s OPTIMUM FOUND


rcpsp/heur_output_bi_constraints/Log=5/heurj90.txt
encoding rcpsp/j90.sm/j907_9.sm nv: 1627749 nc: 3378347 enctime: 29.77
encoding rcpsp/j90.sm/j907_9.sm nv: 285570 nc: 589508 enctime: 3.67
c File: j907_9.smnaivebi5.wcnf
c optimal
c final solution cost: 70
c CPU time: 7.075904
s OPTIMUM FOUND

c File: j907_9.smbi5.wcnf
c optimal
c final solution cost: 70
c CPU time: 0.740678
s OPTIMUM FOUND


rcpsp/heur_output_bi_constraints/Log=5/heurj90.txt
encoding rcpsp/j90.sm/j908_10.sm nv: 2053473 nc: 4176800 enctime: 34.37
encoding rcpsp/j90.sm/j908_10.sm nv: 295803 nc: 598730 enctime: 3.75
c File: j908_10.smnaivebi5.wcnf
c optimal
c final solution cost: 65
c CPU time: 6.439602
s OPTIMUM FOUND

c File: j908_10.smbi5.wcnf
c optimal
c final solution cost: 65
c CPU time: 0.563599
s OPTIMUM FOUND


rcpsp/heur_output_bi_constraints/Log=5/heurj90.txt
encoding rcpsp/j90.sm/j908_1.sm nv: 2484713 nc: 5079157 enctime: 41.57
encoding rcpsp/j90.sm/j908_1.sm nv: 502579 nc: 1024159 enctime: 6.08
c File: j908_1.smnaivebi5.wcnf
c optimal
c final solution cost: 71
c CPU time: 7.396654
s OPTIMUM FOUND

c File: j908_1.smbi5.wcnf
c optimal
c final solution cost: 71
c CPU time: 1.023691
s OPTIMUM FOUND


rcpsp/heur_output_bi_constraints/Log=5/heurj90.txt
encoding rcpsp/j90.sm/j908_2.sm nv: 1784102 nc: 3617878 enctime: 28.90
encoding rcpsp/j90.sm/j908_2.sm nv: 315092 nc: 636733 enctime: 3.89
c File: j908_2.smnaivebi5.wcnf
c optimal
c final solution cost: 65
c CPU time: 4.863545
s OPTIMUM FOUND

c File: j908_2.smbi5.wcnf
c optimal
c final solution cost: 65
c CPU time: 0.801800
s OPTIMUM FOUND


rcpsp/heur_output_bi_constraints/Log=5/heurj90.txt
encoding rcpsp/j90.sm/j908_3.sm nv: 2453993 nc: 4968359 enctime: 40.53
encoding rcpsp/j90.sm/j908_3.sm nv: 357769 nc: 721415 enctime: 4.59
c File: j908_3.smnaivebi5.wcnf
c optimal
c final solution cost: 70
c CPU time: 6.993117
s OPTIMUM FOUND

c File: j908_3.smbi5.wcnf
c optimal
c final solution cost: 70
c CPU time: 0.603176
s OPTIMUM FOUND


rcpsp/heur_output_bi_constraints/Log=5/heurj90.txt
encoding rcpsp/j90.sm/j908_4.sm nv: 2587200 nc: 5289960 enctime: 43.81
encoding rcpsp/j90.sm/j908_4.sm nv: 360000 nc: 732552 enctime: 4.60
c File: j908_4.smnaivebi5.wcnf
c optimal
c final solution cost: 57
c CPU time: 7.747725
s OPTIMUM FOUND

c File: j908_4.smbi5.wcnf
c optimal
c final solution cost: 57
c CPU time: 0.701290
s OPTIMUM FOUND


rcpsp/heur_output_bi_constraints/Log=5/heurj90.txt
encoding rcpsp/j90.sm/j908_5.sm nv: 2696265 nc: 5446476 enctime: 43.34
encoding rcpsp/j90.sm/j908_5.sm nv: 337714 nc: 679146 enctime: 4.45
c File: j908_5.smnaivebi5.wcnf
c optimal
c final solution cost: 56
c CPU time: 6.894660
s OPTIMUM FOUND

c File: j908_5.smbi5.wcnf
c optimal
c final solution cost: 56
c CPU time: 0.618012
s OPTIMUM FOUND


rcpsp/heur_output_bi_constraints/Log=5/heurj90.txt
encoding rcpsp/j90.sm/j908_6.sm nv: 2814870 nc: 5689699 enctime: 45.59
encoding rcpsp/j90.sm/j908_6.sm nv: 429198 nc: 864427 enctime: 5.43
c File: j908_6.smnaivebi5.wcnf
c optimal
c final solution cost: 70
c CPU time: 7.318843
s OPTIMUM FOUND

c File: j908_6.smbi5.wcnf
c optimal
c final solution cost: 70
c CPU time: 0.818135
s OPTIMUM FOUND


rcpsp/heur_output_bi_constraints/Log=5/heurj90.txt
encoding rcpsp/j90.sm/j908_7.sm nv: 2418930 nc: 4923534 enctime: 41.12
encoding rcpsp/j90.sm/j908_7.sm nv: 388926 nc: 788626 enctime: 4.93
c File: j908_7.smnaivebi5.wcnf
c optimal
c final solution cost: 76
c CPU time: 7.325918
s OPTIMUM FOUND

c File: j908_7.smbi5.wcnf
c optimal
c final solution cost: 76
c CPU time: 0.850699
s OPTIMUM FOUND


rcpsp/heur_output_bi_constraints/Log=5/heurj90.txt
encoding rcpsp/j90.sm/j908_8.sm nv: 2798148 nc: 5657360 enctime: 45.36
encoding rcpsp/j90.sm/j908_8.sm nv: 384606 nc: 774419 enctime: 5.03
c File: j908_8.smnaivebi5.wcnf
c optimal
c final solution cost: 66
c CPU time: 7.279074
s OPTIMUM FOUND

c File: j908_8.smbi5.wcnf
c optimal
c final solution cost: 66
c CPU time: 0.711747
s OPTIMUM FOUND


rcpsp/heur_output_bi_constraints/Log=5/heurj90.txt
encoding rcpsp/j90.sm/j908_9.sm nv: 2540154 nc: 5189164 enctime: 44.40
encoding rcpsp/j90.sm/j908_9.sm nv: 411664 nc: 837544 enctime: 5.34
c File: j908_9.smnaivebi5.wcnf
c optimal
c final solution cost: 77
c CPU time: 7.160772
s OPTIMUM FOUND

c File: j908_9.smbi5.wcnf
c optimal
c final solution cost: 77
c CPU time: 0.790994
s OPTIMUM FOUND


rcpsp/heur_output_bi_constraints/Log=5/heurj90.txt
encoding rcpsp/j90.sm/j909_10.sm nv: 1833304 nc: 3804582 enctime: 31.83
encoding rcpsp/j90.sm/j909_10.sm nv: 489368 nc: 1012934 enctime: 6.78
c File: j909_10.smnaivebi5.wcnf
c timeout
c final solution cost: 119
c CPU time: 64.385386
s UNKNOWN

c File: j909_10.smbi5.wcnf
c timeout
c final solution cost: 113
c CPU time: 60.816011
s UNKNOWN


rcpsp/heur_output_bi_constraints/Log=5/heurj90.txt
encoding rcpsp/j90.sm/j909_1.sm nv: 1756800 nc: 3632171 enctime: 30.64
encoding rcpsp/j90.sm/j909_1.sm nv: 439200 nc: 905531 enctime: 5.26
c File: j909_1.smnaivebi5.wcnf
c timeout
c final solution cost: 151
c CPU time: 64.154622
s UNKNOWN

c File: j909_1.smbi5.wcnf
c timeout
c final solution cost: 106
c CPU time: 60.720864
s UNKNOWN


rcpsp/heur_output_bi_constraints/Log=5/heurj90.txt
encoding rcpsp/j90.sm/j909_2.sm nv: 1837668 nc: 3832900 enctime: 33.09
encoding rcpsp/j90.sm/j909_2.sm nv: 617232 nc: 1284844 enctime: 8.44
c File: j909_2.smnaivebi5.wcnf
c timeout
c final solution cost: 133
c CPU time: 64.591326
s UNKNOWN

c File: j909_2.smbi5.wcnf
c timeout
c final solution cost: 136
c CPU time: 61.084408
s UNKNOWN


rcpsp/heur_output_bi_constraints/Log=5/heurj90.txt
encoding rcpsp/j90.sm/j909_3.sm nv: 1725977 nc: 3567834 enctime: 29.25
encoding rcpsp/j90.sm/j909_3.sm nv: 456125 nc: 940434 enctime: 6.31
c File: j909_3.smnaivebi5.wcnf
c timeout
c final solution cost: 241
c CPU time: 64.185052
s UNKNOWN

c File: j909_3.smbi5.wcnf
c timeout
c final solution cost: 105
c CPU time: 60.736999
s UNKNOWN


rcpsp/heur_output_bi_constraints/Log=5/heurj90.txt
encoding rcpsp/j90.sm/j909_4.sm nv: 1746944 nc: 3643310 enctime: 31.25
encoding rcpsp/j90.sm/j909_4.sm nv: 528860 nc: 1100399 enctime: 7.26
c File: j909_4.smnaivebi5.wcnf
c timeout
c final solution cost: 137
c CPU time: 64.416676
s UNKNOWN

c File: j909_4.smbi5.wcnf
c timeout
c final solution cost: 134
c CPU time: 60.937532
s UNKNOWN


rcpsp/heur_output_bi_constraints/Log=5/heurj90.txt
encoding rcpsp/j90.sm/j909_5.sm nv: 1551396 nc: 3254458 enctime: 28.98
encoding rcpsp/j90.sm/j909_5.sm nv: 491832 nc: 1029234 enctime: 6.13
c File: j909_5.smnaivebi5.wcnf
c timeout
c final solution cost: 151
c CPU time: 64.209658
s UNKNOWN

c File: j909_5.smbi5.wcnf
c timeout
c final solution cost: 144
c CPU time: 60.893227
s UNKNOWN


rcpsp/heur_output_bi_constraints/Log=5/heurj90.txt
encoding rcpsp/j90.sm/j909_6.sm nv: 1768348 nc: 3681892 enctime: 31.21
encoding rcpsp/j90.sm/j909_6.sm nv: 522150 nc: 1084602 enctime: 7.21
c File: j909_6.smnaivebi5.wcnf
c timeout
c final solution cost: 127
c CPU time: 64.481619
s UNKNOWN

c File: j909_6.smbi5.wcnf
c timeout
c final solution cost: 126
c CPU time: 60.905883
s UNKNOWN


rcpsp/heur_output_bi_constraints/Log=5/heurj90.txt
encoding rcpsp/j90.sm/j909_7.sm nv: 1748428 nc: 3637115 enctime: 31.14
encoding rcpsp/j90.sm/j909_7.sm nv: 517924 nc: 1074863 enctime: 7.12
c File: j909_7.smnaivebi5.wcnf
c timeout
c final solution cost: 116
c CPU time: 64.470819
s UNKNOWN

c File: j909_7.smbi5.wcnf
c timeout
c final solution cost: 118
c CPU time: 60.886856
s UNKNOWN


rcpsp/heur_output_bi_constraints/Log=5/heurj90.txt
encoding rcpsp/j90.sm/j909_8.sm nv: 1714330 nc: 3570697 enctime: 30.39
encoding rcpsp/j90.sm/j909_8.sm nv: 495175 nc: 1028857 enctime: 7.00
c File: j909_8.smnaivebi5.wcnf
c timeout
c final solution cost: 289
c CPU time: 64.319809
s UNKNOWN

c File: j909_8.smbi5.wcnf
c timeout
c final solution cost: 122
c CPU time: 60.840062
s UNKNOWN


rcpsp/heur_output_bi_constraints/Log=5/heurj90.txt
encoding rcpsp/j90.sm/j909_9.sm nv: 1625272 nc: 3375877 enctime: 28.89
encoding rcpsp/j90.sm/j909_9.sm nv: 470120 nc: 974069 enctime: 5.80
c File: j909_9.smnaivebi5.wcnf
c timeout
c final solution cost: 123
c CPU time: 64.132316
s UNKNOWN

c File: j909_9.smbi5.wcnf
c timeout
c final solution cost: 122
c CPU time: 60.803836
s UNKNOWN


